000 000 000 000 -99 -99 000 000 -99 -99 -99 -99 000 000 000 -99 -99 -99 -99 -99 -99 -99 -99 -99 000 000 000 000 000 000 000
000 000 000 000 000 000 000 000 000 -99 -99 -99 -99 000 -99 -99 -99 000 -99 -99 -99 -99 000 -99 -99 000 000 -99 000 000 000
000 000 000 000 000 000 000 000 000 -99 -99 -99 -99 -99 -99 -99 000 000 -99 -99 -99 -99 000 000 -99 000 000 000 000 -99 -99
000 000 000 000 000 000 000 000 000 -99 -99 -99 000 -99 000 000 000 -99 000 000 000 000 000 000 -99 000 000 000 000 -99 -99
000 000 000 000 000 000 000 000 000 -99 -99 -99 000 000 000 000 000 000 000 000 000 000 000 000 000 000 000 000 000 -99 -99
000 000 000 000 000 000 000 000 000 000 -99 -99 000 000 000 000 000 000 000 001 000 000 000 000 000 000 000 000 000 -99 -99
000 000 000 000 000 000 000 000 000 000 -99 -99 000 000 000 000 001 001 015 010 006 001 001 001 000 000 -99 -99 -99 -99 -99
000 000 000 000 000 000 000 -99 000 000 -99 -99 000 000 000 001 014 031 039 068 047 050 006 003 000 000 -99 -99 -99 -99 000
000 000 000 000 000 000 -99 000 000 000 000 -99 -99 000 000 003 006 019 052 140 098 078 025 003 000 000 000 000 000 000 000
000 000 000 000 000 000 -99 000 000 000 000 000 -99 000 000 004 006 017 062 121 146 116 087 007 000 000 000 000 000 000 000
000 000 000 000 000 000 000 000 000 000 000 000 000 000 000 002 007 008 015 058 114 080 053 004 000 001 000 000 000 000 000
000 000 000 000 000 000 000 000 -99 000 000 000 000 000 000 002 010 007 007 021 052 058 013 002 001 004 000 000 000 000 000
000 000 000 000 000 000 000 000 000 000 000 000 000 000 000 001 006 007 004 005 015 007 008 004 003 005 003 000 000 000 000
000 000 000 000 000 000 000 000 -99 -99 -99 000 000 000 000 000 002 004 002 002 007 006 006 006 009 024 008 000 000 000 000
000 000 -99 000 000 000 000 000 -99 -99 -99 -99 -99 000 000 000 000 001 001 002 008 007 008 015 023 023 006 000 000 000 000
000 000 000 000 000 000 000 000 000 -99 -99 -99 -99 000 000 000 000 000 001 001 007 021 013 028 039 019 003 000 000 000 000
000 000 -99 -99 -99 000 000 000 000 -99 -99 -99 -99 000 000 000 000 001 001 000 000 003 023 017 016 013 001 000 000 000 000
000 000 000 -99 -99 -99 000 000 000 000 -99 -99 -99 000 000 000 000 003 003 000 000 002 013 011 008 004 000 000 000 000 000
000 000 000 000 -99 -99 000 000 000 -99 -99 -99 -99 000 000 000 001 003 004 000 000 001 005 006 002 000 000 000 000 000 000
000 000 000 000 000 -99 000 000 -99 -99 -99 -99 -99 000 000 002 002 002 003 000 000 000 001 003 002 000 000 000 000 000 000
000 000 000 000 000 -99 -99 000 000 000 -99 -99 000 000 001 004 002 001 002 000 000 000 000 001 002 000 000 000 000 000 000
000 000 000 000 000 000 -99 000 000 000 -99 -99 000 000 002 002 002 001 000 000 000 000 000 000 -99 -99 -99 -99 -99 000 -99
000 000 000 000 000 000 000 000 000 -99 -99 -99 000 000 002 001 002 000 000 000 000 000 000 -99 -99 -99 -99 -99 -99 -99 -99
000 000 000 000 000 000 000 -99 -99 -99 -99 -99 000 000 001 000 001 000 000 000 000 000 000 -99 -99 -99 -99 -99 -99 -99 -99
000 000 000 000 000 000 000 000 000 -99 -99 -99 -99 000 000 000 000 000 000 000 000 000 000 -99 -99 -99 -99 -99 -99 -99 000
000 -99 000 000 000 000 000 000 000 -99 -99 -99 -99 -99 -99 000 000 000 000 000 -99 -99 000 -99 -99 -99 -99 -99 -99 000 000
000 -99 -99 000 000 000 000 000 000 -99 -99 -99 -99 -99 000 000 000 000 000 -99 -99 -99 -99 -99 -99 -99 -99 -99 -99 000 000
000 -99 -99 -99 000 000 000 000 000 -99 -99 -99 -99 -99 000 000 000 000 000 -99 000 000 -99 -99 -99 -99 -99 -99 -99 000 000
000 -99 -99 -99 000 000 000 000 000 -99 -99 -99 -99 000 000 000 000 000 000 000 000 000 -99 000 -99 -99 -99 -99 -99 000 000
000 000 000 -99 000 000 000 000 000 -99 -99 -99 -99 000 000 000 000 000 000 000 000 000 000 000 000 -99 -99 -99 -99 -99 -99
000 000 000 000 000 000 000 000 -99 -99 -99 -99 -99 000 000 000 000 000 000 000 000 000 001 001 000 000 000 -99 -99 -99 -99
-99 000 000 000 000 000 000 000 000 -99 -99 -99 -99 000 001 000 000 000 001 001 000 000 002 001 000 000 000 -99 -99 -99 -99
000 000 000 000 000 000 000 000 000 000 -99 -99 -99 000 000 000 000 000 000 000 001 000 003 000 000 000 000 000 000 000 -99
000 000 000 000 000 000 000 000 000 000 -99 -99 -99 000 000 000 000 000 000 000 000 000 000 000 000 000 000 000 000 000 000
000 000 000 000 000 000 000 000 000 000 -99 -99 -99 000 000 000 000 000 000 000 000 000 000 000 000 000 000 000 000 000 000
000 000 000 000 000 000 000 000 000 000 000 -99 -99 000 000 000 000 000 000 000 000 000 000 000 000 000 000 000 000 -99 -99
000 000 000 000 000 -99 -99 000 000 000 000 -99 -99 -99 000 000 000 000 000 000 000 000 000 000 000 000 000 000 -99 -99 -99
000 000 -99 000 000 -99 -99 000 000 000 -99 -99 -99 -99 000 000 000 000 000 000 000 000 -99 -99 000 000 000 -99 -99 -99 -99
000 000 000 000 000 -99 -99 000 000 000 -99 -99 -99 000 000 000 000 000 -99 -99 000 000 -99 -99 000 000 000 -99 -99 -99 -99
-99 -99 000 000 -99 -99 -99 -99 -99 -99 -99 -99 000 000 -99 -99 000 000 -99 -99 -99 -99 -99 -99 -99 000 000 -99 -99 -99 -99
-99 000 000 000 -99 000 -99 -99 -99 -99 -99 000 000 000 -99 -99 -99 -99 -99 -99 -99 -99 -99 -99 -99 -99 000 -99 -99 -99 -99
000 000 -99 -99 000 000 000 000 000 -99 000 000 000 000 -99 000 -99 -99 -99 -99 -99 -99 000 000 -99 -99 -99 -99 -99 -99 -99
000 -99 -99 000 000 000 001 001 000 000 -99 000 000 -99 -99 000 000 -99 -99 000 000 000 000 -99 -99 -99 -99 -99 -99 -99 -99
-99 -99 -99 000 000 002 004 008 001 000 000 000 000 -99 000 000 000 -99 000 000 000 -99 -99 -99 -99 -99 -99 000 -99 -99 -99
-99 -99 -99 000 000 015 051 033 000 001 000 000 000 000 000 000 -99 -99 000 000 000 -99 -99 -99 000 000 000 000 -99 -99 -99
-99 -99 -99 000 003 056 121 046 008 007 001 000 000 -99 000 -99 -99 -99 000 000 -99 -99 -99 000 000 000 000 000 -99 -99 -99
-99 -99 -99 000 007 068 183 087 042 015 000 000 000 000 000 -99 000 -99 -99 000 -99 -99 -99 000 -99 000 000 -99 -99 -99 -99
-99 -99 -99 000 002 037 098 071 034 005 000 000 000 000 000 000 000 000 -99 -99 -99 000 000 000 -99 -99 000 000 000 000 -99
-99 -99 -99 000 001 007 065 051 008 002 000 000 000 000 000 001 000 -99 -99 -99 -99 -99 000 -99 -99 000 000 000 000 -99 -99
-99 -99 -99 000 000 007 018 012 003 003 000 001 000 002 002 002 000 -99 -99 -99 000 000 -99 -99 -99 -99 000 -99 -99 -99 -99
-99 000 000 000 000 001 006 003 006 005 002 001 002 013 018 003 000 000 -99 -99 000 000 -99 -99 -99 -99 -99 -99 -99 -99 -99
-99 000 000 000 000 000 001 002 002 002 001 002 042 033 061 003 000 000 000 000 -99 -99 -99 -99 -99 -99 -99 -99 -99 -99 -99
-99 000 000 000 000 000 000 000 000 001 002 005 040 056 031 002 000 000 000 -99 -99 -99 -99 -99 -99 -99 -99 -99 -99 -99 -99
-99 -99 -99 -99 000 000 000 000 000 001 004 012 052 038 012 002 000 000 000 -99 -99 -99 -99 -99 -99 -99 -99 -99 -99 -99 -99
-99 -99 -99 -99 -99 000 000 000 000 003 005 009 024 017 010 003 001 000 -99 -99 -99 -99 -99 -99 -99 -99 -99 -99 -99 -99 -99
